
--- Job Doptimal_MINLP.gms Start 04/02/19 17:26:42 25.1.3 r4e34d435fbd WEX-WEI x86 64bit/MS Windows
GAMS 25.1.3   Copyright (C) 1987-2018 GAMS Development. All rights reserved
Licensee: GAMS Development Corporation, USA              G871201/0000CA-ANY
          Free Demo, +1 202-342-0180, support@gams.com, www.gams.com DC0000
--- Starting compilation
--- Doptimal_MINLP.gms(142) 3 Mb
--- GDXin=C:\Users\AVazquezAlcocer.AD\Dropbox\SDP for Constructing Designs\MINL_PROBLEMS\Mixture\First-Order\Scenario321\in.gdx
--- Doptimal_MINLP.gms(190) 3 Mb
--- Starting execution: elapsed 0:00:00.348
--- Doptimal_MINLP.gms(174) 4 Mb
--- Generating MINLP model D_opt
--- Doptimal_MINLP.gms(185) 6 Mb
---   89 rows  110 columns  586 non-zeroes
---   814 nl-code  423 nl-non-zeroes
---   13 discrete-columns
--- Doptimal_MINLP.gms(185) 4 Mb
--- Executing SBB: elapsed 0:00:00.873

Simple B&B       25.1.3 r4e34d435fbd Released Oct 30, 2018 WEI x86 64bit/MS Wi

*** Error Cannot open parameter file "C:\Users\AVazquezAlcocer.AD\Dropbox\SDP for Constructing Designs\MINL_PROBLEMS\Mixture\First-Order\Scenario321\sbb.opt"
*** Error Error code = 2; No such file or directory
 110 columns (13 discrete), 89 rows, 586 nonzeros

COIN-OR Ipopt    25.1.3 r4e34d435fbd Released Oct 30, 2018 WEI x86 64bit/MS Wi

COIN-OR Interior Point Optimizer (Ipopt Library 3.12)
written by A. Waechter.

******************************************************************************
This program contains Ipopt, a library for large-scale nonlinear optimization.
 Ipopt is released as open source code under the Eclipse Public License (EPL).
         For more information visit http://projects.coin-or.org/Ipopt
******************************************************************************

This is Ipopt version 3.12, running with linear solver mumps.

Number of nonzeros in equality constraint Jacobian...:      478
Number of nonzeros in inequality constraint Jacobian.:      108
Number of nonzeros in Lagrangian Hessian.............:      174

Total number of variables............................:      110
                     variables with only lower bounds:        0
                variables with lower and upper bounds:      110
                     variables with only upper bounds:        0
Total number of equality constraints.................:       71
Total number of inequality constraints...............:       18
        inequality constraints with only lower bounds:       15
   inequality constraints with lower and upper bounds:        0
        inequality constraints with only upper bounds:        3

iter    objective    inf_pr   inf_du lg(mu)  ||d||  lg(rg) alpha_du alpha_pr  ls
   0  0.0000000e+00 1.86e+00 8.70e-01   0.0 0.00e+00    -  0.00e+00 0.00e+00   0
   1 -3.2749709e+00 4.97e-01 1.82e+01  -0.7 3.27e+00    -  7.19e-02 1.00e+00f  1
   2 -3.6201838e+00 1.41e-01 5.45e+00  -1.0 6.97e-01    -  4.33e-01 7.52e-01f  1
   3 -4.4647797e+00 1.30e-01 1.50e+00  -1.2 8.45e-01    -  9.77e-01 1.00e+00h  1
   4 -4.5788419e+00 1.36e-03 1.14e+01  -1.8 1.14e-01   2.0 9.98e-01 1.00e+00h  1
   5 -4.5584661e+00 9.85e-05 1.62e+00  -3.2 2.04e-02   1.5 1.00e+00 1.00e+00h  1
   6 -4.4936477e+00 8.86e-04 7.20e-01  -4.3 6.48e-02   1.0 1.00e+00 1.00e+00f  1
   7 -4.3477161e+00 4.59e-03 7.08e-01  -5.4 1.90e-01   0.6 1.00e+00 7.67e-01f  1
   8 -4.1024308e+00 1.44e-02 6.81e-01  -4.9 5.26e-01   0.1 1.00e+00 4.66e-01f  1
   9 -3.9820508e+00 1.60e-02 6.68e-01  -4.6 1.32e+00  -0.4 1.00e+00 9.15e-02f  1
iter    objective    inf_pr   inf_du lg(mu)  ||d||  lg(rg) alpha_du alpha_pr  ls
  10 -3.9242122e+00 1.48e-02 6.53e-01  -3.7 4.94e-01   0.0 1.00e+00 1.17e-01f  1
  11 -3.7275192e+00 1.98e-02 6.22e-01  -3.4 1.24e+00  -0.4 1.00e+00 1.58e-01f  1
  12 -3.5906345e+00 1.69e-02 5.45e-01  -4.1 4.04e-01  -0.0 1.00e+00 3.39e-01f  1
  13 -3.5177799e+00 1.64e-02 5.20e-01  -4.2 8.18e-01  -0.5 1.00e+00 8.91e-02f  1
  14 -3.4643401e+00 8.99e-03 3.57e-01  -3.3 1.27e-01  -0.1 1.00e+00 4.92e-01h  1
  15 -3.4430936e+00 3.21e-03 1.56e-01  -4.0 4.74e-02   0.4 1.00e+00 6.57e-01h  1
  16 -3.4129968e+00 2.26e-03 1.25e-01  -4.7 1.39e-01  -0.1 1.00e+00 3.47e-01h  1
  17 -3.3813047e+00 2.11e-04 1.09e-01  -4.8 5.30e-02   0.3 1.00e+00 9.93e-01h  1
  18 -3.3028840e+00 1.41e-03 1.07e-01  -5.1 2.03e-01  -0.2 1.00e+00 6.16e-01f  1
  19 -3.2247479e+00 1.18e-03 1.43e-01  -5.8 7.81e-02   0.3 1.00e+00 1.00e+00h  1
iter    objective    inf_pr   inf_du lg(mu)  ||d||  lg(rg) alpha_du alpha_pr  ls
  20 -2.9986658e+00 9.13e-03 1.39e+00  -3.8 2.85e-01  -0.2 2.02e-01 7.94e-01f  1
  21 -2.9925883e+00 8.80e-03 1.77e+00  -4.1 1.66e-01   0.2 1.00e+00 3.66e-02h  1
  22 -2.7348878e+00 1.42e-02 7.68e-01  -3.3 3.92e-01  -0.3 4.06e-01 6.58e-01f  1
  23 -2.6881446e+00 9.57e-03 6.60e-01  -3.4 1.29e-01   0.2 1.00e+00 3.62e-01h  1
  24 -2.6129344e+00 8.28e-03 4.82e-01  -3.4 2.89e-01  -0.3 1.00e+00 2.60e-01h  1
  25 -2.5754574e+00 5.67e-03 3.18e-01  -3.7 1.06e-01   0.1 1.00e+00 3.55e-01h  1
  26 -2.4094240e+00 8.12e-03 1.43e-01  -4.0 2.97e-01  -0.4 1.00e+00 5.60e-01f  1
  27 -2.3437310e+00 2.64e-03 9.77e-02  -3.4 7.81e-02   0.1 1.00e+00 8.41e-01h  1
  28 -2.2500388e+00 3.42e-03 9.78e-02  -3.1 3.01e-01  -0.4 1.00e+00 3.64e-01f  1
  29 -2.1557328e+00 2.29e-03 1.12e-01  -3.9 1.13e-01   0.0 1.00e+00 8.34e-01h  1
iter    objective    inf_pr   inf_du lg(mu)  ||d||  lg(rg) alpha_du alpha_pr  ls
  30 -2.0529357e+00 3.52e-03 1.05e-01  -4.0 3.13e-01  -0.5 1.00e+00 3.72e-01f  1
  31 -2.0156470e+00 8.87e-04 7.51e-02  -3.5 8.53e-02  -0.0 1.00e+00 8.75e-01h  1
  32 -1.9724083e+00 1.15e-03 7.96e-02  -3.5 3.02e-01  -0.5 9.99e-01 3.11e-01h  1
  33 -1.9413082e+00 7.31e-04 8.53e-02  -4.7 1.13e-01  -0.1 1.00e+00 4.90e-01h  1
  34 -1.9187088e+00 1.00e-03 1.23e-01  -4.3 3.21e-01  -0.6 1.00e+00 1.78e-01h  1
  35 -1.8907072e+00 6.98e-04 7.80e-02  -4.7 1.05e-01  -0.1 1.00e+00 6.19e-01h  1
  36 -1.8606316e+00 1.72e-03 7.55e-02  -4.0 4.47e-01  -0.6 1.00e+00 2.24e-01h  1
  37 -1.8523933e+00 1.47e-03 7.11e-02  -4.6 1.08e-01  -0.2 1.00e+00 1.67e-01h  1
  38 -1.8224031e+00 2.52e-03 9.17e-02  -4.6 6.00e-01  -0.7 1.00e+00 1.80e-01h  1
  39 -1.7969507e+00 1.76e-03 7.23e-02  -5.2 1.22e-01  -0.2 1.00e+00 4.55e-01h  1
iter    objective    inf_pr   inf_du lg(mu)  ||d||  lg(rg) alpha_du alpha_pr  ls
  40 -1.7678067e+00 2.34e-03 1.35e-01  -4.8 8.04e-01  -0.7 1.00e+00 9.82e-02f  1
  41 -1.7467564e+00 1.97e-03 8.14e-02  -5.4 1.72e-01  -0.3 1.00e+00 2.66e-01h  1
  42 -1.6960868e+00 3.42e-03 1.43e-01  -5.1 9.02e-01  -0.8 7.56e-01 1.35e-01f  1
  43 -1.6939345e+00 3.32e-03 2.33e-01  -4.8 1.37e-01  -0.4 6.06e-01 3.01e-02h  1
  44 -1.6683988e+00 3.51e-03 2.52e-01  -4.6 5.61e-01  -0.8 1.00e+00 1.05e-01h  1
  45 -1.6676161e+00 3.39e-03 2.77e-01 -10.5 3.40e-02    -  5.06e-01 3.28e-02h  1
  46 -1.6622907e+00 1.96e-03 1.63e-01  -5.4 1.89e-02    -  1.00e+00 4.22e-01h  1
  47 -1.6564538e+00 1.92e-05 1.57e-03  -6.8 5.89e-03    -  1.00e+00 9.90e-01h  1
  48 -1.6564109e+00 2.08e-08 1.83e-06  -8.7 6.22e-05    -  1.00e+00 9.99e-01h  1
  49 -1.6564107e+00 6.22e-15 2.58e-11 -10.8 3.02e-07    -  1.00e+00 1.00e+00h  1

Number of Iterations....: 49

                                   (scaled)                 (unscaled)
Objective...............:   1.6564107190252195e+00   -1.6564107190252195e+00
Dual infeasibility......:   2.5806799337390021e-11    2.5806799337390021e-11
Constraint violation....:   6.2172489379008766e-15    6.2172489379008766e-15
Complementarity.........:   8.6809486421405918e-11   -8.6809486421405918e-11
Overall NLP error.......:   8.6809486421405918e-11    2.5806799337390021e-11


Number of objective function evaluations             = 50
Number of objective gradient evaluations             = 50
Number of equality constraint evaluations            = 50
Number of inequality constraint evaluations          = 50
Number of equality constraint Jacobian evaluations   = 50
Number of inequality constraint Jacobian evaluations = 50
Number of Lagrangian Hessian evaluations             = 49
Total CPU secs in IPOPT (w/o function evaluations)   =      0.888
Total CPU secs in NLP function evaluations           =      0.007

EXIT: Optimal Solution Found.
 Root node solved locally optimal.
 Relaxed problem gives integer solution.
 Terminating.
--- Restarting execution
--- Doptimal_MINLP.gms(185) 2 Mb
--- Reading solution for model D_opt
--- Executing after solve: elapsed 0:00:10.194
--- Doptimal_MINLP.gms(190) 3 Mb
*** Status: Normal completion
--- Job Doptimal_MINLP.gms Stop 04/02/19 17:26:53 elapsed 0:00:10.218
